Data path: /scratch/opt/lxu/CFLG/benchmarks/tree_A
Instance: treeA.400.20
Result path: /scratch/opt/lxu/CFLG/results/tree_A
Solver: Gurobi
Time limit: 7200
Formulation: LEVFP
Cover: Large
julia --project=. src/main.jl /scratch/opt/lxu/CFLG/benchmarks/tree_A treeA.400.20 /scratch/opt/lxu/CFLG/results/tree_A Gurobi 7200 LEVFP Large
The latest version of Julia in the `release` channel is 1.11.5+0.x64.linux.gnu. You currently have `1.11.4+0.x64.linux.gnu` installed. Run:

  juliaup update

in your terminal shell to install Julia 1.11.5+0.x64.linux.gnu and update the `release` channel to that version.
/scratch/opt/lxu/CFLG/benchmarks/tree_A Gurobi 7200.0 /scratch/opt/lxu/CFLG/results/tree_A treeA.400.20 LEVFP Large
/scratch/opt/lxu/CFLG/benchmarks/tree_A/treeA.400.20

 read graph
data loaded

problem_graph/original graph: node: 400/400 edge: 419/419 dlt: 2.988355114737412 break_avg_len: 1.494177557368706 break_max_len: 1.991328579876655elapsed CPU time: 0.063104 seconds
Set parameter TokenServer to value "solice01.zib.de"
Set parameter Threads to value 1
Set parameter OutputFlag to value 1
Set parameter MIPGap to value 0.0001
Set parameter MIPGapAbs to value 0.999998
Set parameter TimeLimit to value 7199.936896

 model loaded

Gurobi Optimizer version 12.0.1 build v12.0.1rc0 (linux64 - "Debian GNU/Linux 12 (bookworm)")

CPU model: Intel(R) Xeon(R) Gold 5122 CPU @ 3.60GHz, instruction set [SSE2|AVX|AVX2|AVX512]
Thread count: 8 physical cores, 16 logical processors, using up to 1 threads

Non-default parameters:
TimeLimit  7199.936896
MIPGapAbs  0.999998
Threads  1

Optimize a model with 16392 rows, 7340 columns and 44085 nonzeros
Model fingerprint: 0x5aab3b8c
Variable types: 819 continuous, 6521 integer (6521 binary)
Coefficient statistics:
  Matrix range     [1e-06, 4e+00]
  Objective range  [1e+00, 1e+00]
  Bounds range     [1e+00, 2e+00]
  RHS range        [1e+00, 7e+00]
Found heuristic solution: objective 253.0000000
Presolve removed 5138 rows and 778 columns
Presolve time: 0.46s
Presolved: 11254 rows, 6562 columns, 45060 nonzeros
Variable types: 801 continuous, 5761 integer (5761 binary)

Root relaxation: objective 8.292097e+01, 5161 iterations, 0.12 seconds (0.09 work units)

    Nodes    |    Current Node    |     Objective Bounds      |     Work
 Expl Unexpl |  Obj  Depth IntInf | Incumbent    BestBd   Gap | It/Node Time

     0     0   82.92097    0  439  253.00000   82.92097  67.2%     -    0s
H    0     0                     113.0000000   82.92097  26.6%     -    0s
H    0     0                     107.0000000   82.92097  22.5%     -    0s
H    0     0                     103.0000000   82.92097  19.5%     -    0s
H    0     0                      99.0000000   82.92097  16.2%     -    0s
H    0     0                      98.0000000   82.92097  15.4%     -    0s
     0     0   89.92303    0  507   98.00000   89.92303  8.24%     -    1s
     0     0   90.41577    0  485   98.00000   90.41577  7.74%     -    1s
     0     0   90.41577    0  486   98.00000   90.41577  7.74%     -    1s
     0     0   92.72630    0  304   98.00000   92.72630  5.38%     -    1s
     0     0   92.72630    0  290   98.00000   92.72630  5.38%     -    1s
     0     0   92.89830    0  298   98.00000   92.89830  5.21%     -    1s
     0     0   92.89830    0  284   98.00000   92.89830  5.21%     -    1s
     0     0   93.16667    0  265   98.00000   93.16667  4.93%     -    1s
H    0     0                      97.0000000   93.16667  3.95%     -    1s
     0     0   93.16667    0  239   97.00000   93.16667  3.95%     -    1s
     0     0   93.20833    0  199   97.00000   93.20833  3.91%     -    1s
     0     0   93.33333    0  190   97.00000   93.33333  3.78%     -    1s
     0     0   93.33333    0  177   97.00000   93.33333  3.78%     -    1s
H    0     0                      96.0000000   93.33333  2.78%     -    1s
     0     0   93.33333    0  162   96.00000   93.33333  2.78%     -    1s
     0     0   93.33333    0  205   96.00000   93.33333  2.78%     -    1s
     0     0   93.33333    0  205   96.00000   93.33333  2.78%     -    1s
     0     0   93.33333    0  209   96.00000   93.33333  2.78%     -    2s
     0     0   93.44703    0  114   96.00000   93.44703  2.66%     -    2s
     0     2   93.44703    0  110   96.00000   93.44703  2.66%     -    2s
*  100     2              32      95.0000000   93.53333  1.54%  25.7    2s

Cutting planes:
  Gomory: 8
  Cover: 65
  Implied bound: 36
  Clique: 70
  MIR: 50
  StrongCG: 3
  Flow cover: 31
  GUB cover: 11
  Zero half: 16
  Network: 1
  RLT: 31
  Relax-and-lift: 56
  BQP: 7

Explored 105 nodes (23926 simplex iterations) in 2.99 seconds (1.92 work units)
Thread count was 1 (of 16 available processors)

Solution count 9: 95 96 97 ... 253

Optimal solution found (tolerance 1.00e-04)
Warning: max constraint violation (2.9360e-06) exceeds tolerance
Best objective 9.500000000000e+01, best bound 9.500000000000e+01, gap 0.0000%

User-callback calls 1997, time in user-callback 0.01 sec
Stat(MathOptInterface.OPTIMAL, 95.0, 95.0, 0.0, 5.0e-324, 0.063104, 2.9928300380706787, 105, Main.CFLG.LEVFP, "", #undef)
ERROR: LoadError: SystemError: opening file "/scratch/opt/lxu/CFLG/results/tree_A/treeA.400.20.LEVFP.Large": No such file or directory
Stacktrace:
 [1] systemerror(p::String, errno::Int32; extrainfo::Nothing)
   @ Base ./error.jl:176
 [2] systemerror
   @ ./error.jl:175 [inlined]
 [3] open(fname::String; lock::Bool, read::Nothing, write::Nothing, create::Nothing, truncate::Bool, append::Nothing)
   @ Base ./iostream.jl:295
 [4] open
   @ ./iostream.jl:277 [inlined]
 [5] open(fname::String, mode::String; lock::Bool)
   @ Base ./iostream.jl:358
 [6] open
   @ ./iostream.jl:357 [inlined]
 [7] main(args::Vector{String})
   @ Main /scratch/opt/lxu/CFLG/src/main.jl:51
 [8] top-level scope
   @ /scratch/opt/lxu/CFLG/src/main.jl:57
in expression starting at /scratch/opt/lxu/CFLG/src/main.jl:57
srun: error: htc-cmp462: task 0: Exited with exit code 1
